max_width = 60;
n_blocks = 73;
width = [34, 33, 25, 25, 23, 21, 21, 21, 16, 16, 16, 16, 16, 14, 14, 14, 14, 14, 13, 13, 12, 12, 12, 12, 12, 12, 11, 11, 10, 10, 10, 9, 8, 8, 7, 7, 6, 6, 6, 6, 6, 6, 6, 6, 6, 6, 6, 6, 6, 5, 5, 5, 5, 4, 4, 4, 4, 3, 3, 3, 3, 3, 3, 3, 3, 3, 3, 2, 2, 2, 2, 2, 2];
height = [6, 14, 15, 7, 6, 12, 5, 3, 18, 7, 5, 5, 3, 13, 7, 6, 6, 5, 5, 3, 18, 13, 9, 4, 3, 3, 7, 2, 12, 12, 9, 18, 9, 3, 5, 3, 15, 13, 9, 9, 7, 7, 6, 6, 5, 5, 2, 2, 1, 18, 7, 7, 5, 10, 4, 3, 1, 18, 9, 9, 7, 7, 5, 2, 2, 2, 1, 12, 10, 9, 9, 3, 1];
